WARNING: for repeatability, setting FPU to use double precision
============================[ Problem Statistics ]=============================
|                                                                             |
|  Number of variables:            50                                         |
|  Number of clauses:             218                                         |
|  Parse time:                   0.00 s                                       |
|                                                                             |
============================[ Search Statistics ]==============================
| Conflicts |          ORIGINAL         |          LEARNT          | Progress |
|           |    Vars  Clauses Literals |    Limit  Clauses Lit/Cl |          |
===============================================================================
===============================================================================
restarts              : 1
conflicts             : 74             (47436 /sec)
decisions             : 77             (0.00 % random) (49359 /sec)
propagations          : 1062           (680769 /sec)
conflict literals     : 280            (20.23 % deleted)
Memory used           : 20.00 MB
CPU time              : 0.00156 s

UNSATISFIABLE
